certificates/rado_a15_c82_N62.cnf
c Rad2 upper bound instance: x1 + 15*x2 - x3 = 82, interval [1,62]
p cnf 62 510
1 6 9 0
-1 -6 -9 0
1 7 24 0
-1 -7 -24 0
1 8 39 0
-1 -8 -39 0
1 9 54 0
-1 -9 -54 0
2 6 10 0
-2 -6 -10 0
2 7 25 0
-2 -7 -25 0
2 8 40 0
-2 -8 -40 0
2 9 55 0
-2 -9 -55 0
3 6 11 0
-3 -6 -11 0
3 7 26 0
-3 -7 -26 0
3 8 41 0
-3 -8 -41 0
3 9 56 0
-3 -9 -56 0
4 6 12 0
-4 -6 -12 0
4 7 27 0
-4 -7 -27 0
4 8 42 0
-4 -8 -42 0
4 9 57 0
-4 -9 -57 0
5 6 13 0
-5 -6 -13 0
5 7 28 0
-5 -7 -28 0
5 8 43 0
-5 -8 -43 0
5 9 58 0
-5 -9 -58 0
6 14 0
-6 -14 0
6 7 29 0
-6 -7 -29 0
6 8 44 0
-6 -8 -44 0
6 9 59 0
-6 -9 -59 0
6 7 15 0
-6 -7 -15 0
7 30 0
-7 -30 0
7 8 45 0
-7 -8 -45 0
7 9 60 0
-7 -9 -60 0
1 5 8 0
-1 -5 -8 0
6 8 16 0
-6 -8 -16 0
7 8 31 0
-7 -8 -31 0
8 46 0
-8 -46 0
8 9 61 0
-8 -9 -61 0
2 5 9 0
-2 -5 -9 0
6 9 17 0
-6 -9 -17 0
7 9 32 0
-7 -9 -32 0
8 9 47 0
-8 -9 -47 0
9 62 0
-9 -62 0
3 5 10 0
-3 -5 -10 0
6 10 18 0
-6 -10 -18 0
7 10 33 0
-7 -10 -33 0
8 10 48 0
-8 -10 -48 0
4 5 11 0
-4 -5 -11 0
6 11 19 0
-6 -11 -19 0
7 11 34 0
-7 -11 -34 0
8 11 49 0
-8 -11 -49 0
5 12 0
-5 -12 0
6 12 20 0
-6 -12 -20 0
7 12 35 0
-7 -12 -35 0
8 12 50 0
-8 -12 -50 0
6 13 21 0
-6 -13 -21 0
7 13 36 0
-7 -13 -36 0
8 13 51 0
-8 -13 -51 0
5 7 14 0
-5 -7 -14 0
6 14 22 0
-6 -14 -22 0
7 14 37 0
-7 -14 -37 0
8 14 52 0
-8 -14 -52 0
5 8 15 0
-5 -8 -15 0
6 15 23 0
-6 -15 -23 0
7 15 38 0
-7 -15 -38 0
8 15 53 0
-8 -15 -53 0
5 9 16 0
-5 -9 -16 0
6 16 24 0
-6 -16 -24 0
7 16 39 0
-7 -16 -39 0
8 16 54 0
-8 -16 -54 0
5 10 17 0
-5 -10 -17 0
6 17 25 0
-6 -17 -25 0
7 17 40 0
-7 -17 -40 0
8 17 55 0
-8 -17 -55 0
5 11 18 0
-5 -11 -18 0
6 18 26 0
-6 -18 -26 0
7 18 41 0
-7 -18 -41 0
8 18 56 0
-8 -18 -56 0
5 12 19 0
-5 -12 -19 0
6 19 27 0
-6 -19 -27 0
7 19 42 0
-7 -19 -42 0
8 19 57 0
-8 -19 -57 0
5 13 20 0
-5 -13 -20 0
6 20 28 0
-6 -20 -28 0
7 20 43 0
-7 -20 -43 0
8 20 58 0
-8 -20 -58 0
5 14 21 0
-5 -14 -21 0
6 21 29 0
-6 -21 -29 0
7 21 44 0
-7 -21 -44 0
8 21 59 0
-8 -21 -59 0
5 15 22 0
-5 -15 -22 0
6 22 30 0
-6 -22 -30 0
7 22 45 0
-7 -22 -45 0
8 22 60 0
-8 -22 -60 0
1 4 23 0
-1 -4 -23 0
5 16 23 0
-5 -16 -23 0
6 23 31 0
-6 -23 -31 0
7 23 46 0
-7 -23 -46 0
8 23 61 0
-8 -23 -61 0
2 4 24 0
-2 -4 -24 0
5 17 24 0
-5 -17 -24 0
6 24 32 0
-6 -24 -32 0
7 24 47 0
-7 -24 -47 0
8 24 62 0
-8 -24 -62 0
3 4 25 0
-3 -4 -25 0
5 18 25 0
-5 -18 -25 0
6 25 33 0
-6 -25 -33 0
7 25 48 0
-7 -25 -48 0
4 26 0
-4 -26 0
5 19 26 0
-5 -19 -26 0
6 26 34 0
-6 -26 -34 0
7 26 49 0
-7 -26 -49 0
4 5 27 0
-4 -5 -27 0
5 20 27 0
-5 -20 -27 0
6 27 35 0
-6 -27 -35 0
7 27 50 0
-7 -27 -50 0
4 6 28 0
-4 -6 -28 0
5 21 28 0
-5 -21 -28 0
6 28 36 0
-6 -28 -36 0
7 28 51 0
-7 -28 -51 0
4 7 29 0
-4 -7 -29 0
5 22 29 0
-5 -22 -29 0
6 29 37 0
-6 -29 -37 0
7 29 52 0
-7 -29 -52 0
4 8 30 0
-4 -8 -30 0
5 23 30 0
-5 -23 -30 0
6 30 38 0
-6 -30 -38 0
7 30 53 0
-7 -30 -53 0
4 9 31 0
-4 -9 -31 0
5 24 31 0
-5 -24 -31 0
6 31 39 0
-6 -31 -39 0
7 31 54 0
-7 -31 -54 0
4 10 32 0
-4 -10 -32 0
5 25 32 0
-5 -25 -32 0
6 32 40 0
-6 -32 -40 0
7 32 55 0
-7 -32 -55 0
4 11 33 0
-4 -11 -33 0
5 26 33 0
-5 -26 -33 0
6 33 41 0
-6 -33 -41 0
7 33 56 0
-7 -33 -56 0
4 12 34 0
-4 -12 -34 0
5 27 34 0
-5 -27 -34 0
6 34 42 0
-6 -34 -42 0
7 34 57 0
-7 -34 -57 0
4 13 35 0
-4 -13 -35 0
5 28 35 0
-5 -28 -35 0
6 35 43 0
-6 -35 -43 0
7 35 58 0
-7 -35 -58 0
4 14 36 0
-4 -14 -36 0
5 29 36 0
-5 -29 -36 0
6 36 44 0
-6 -36 -44 0
7 36 59 0
-7 -36 -59 0
4 15 37 0
-4 -15 -37 0
5 30 37 0
-5 -30 -37 0
6 37 45 0
-6 -37 -45 0
7 37 60 0
-7 -37 -60 0
1 3 38 0
-1 -3 -38 0
4 16 38 0
-4 -16 -38 0
5 31 38 0
-5 -31 -38 0
6 38 46 0
-6 -38 -46 0
7 38 61 0
-7 -38 -61 0
2 3 39 0
-2 -3 -39 0
4 17 39 0
-4 -17 -39 0
5 32 39 0
-5 -32 -39 0
6 39 47 0
-6 -39 -47 0
7 39 62 0
-7 -39 -62 0
3 40 0
-3 -40 0
4 18 40 0
-4 -18 -40 0
5 33 40 0
-5 -33 -40 0
6 40 48 0
-6 -40 -48 0
3 4 41 0
-3 -4 -41 0
4 19 41 0
-4 -19 -41 0
5 34 41 0
-5 -34 -41 0
6 41 49 0
-6 -41 -49 0
3 5 42 0
-3 -5 -42 0
4 20 42 0
-4 -20 -42 0
5 35 42 0
-5 -35 -42 0
6 42 50 0
-6 -42 -50 0
3 6 43 0
-3 -6 -43 0
4 21 43 0
-4 -21 -43 0
5 36 43 0
-5 -36 -43 0
6 43 51 0
-6 -43 -51 0
3 7 44 0
-3 -7 -44 0
4 22 44 0
-4 -22 -44 0
5 37 44 0
-5 -37 -44 0
6 44 52 0
-6 -44 -52 0
3 8 45 0
-3 -8 -45 0
4 23 45 0
-4 -23 -45 0
5 38 45 0
-5 -38 -45 0
6 45 53 0
-6 -45 -53 0
3 9 46 0
-3 -9 -46 0
4 24 46 0
-4 -24 -46 0
5 39 46 0
-5 -39 -46 0
6 46 54 0
-6 -46 -54 0
3 10 47 0
-3 -10 -47 0
4 25 47 0
-4 -25 -47 0
5 40 47 0
-5 -40 -47 0
6 47 55 0
-6 -47 -55 0
3 11 48 0
-3 -11 -48 0
4 26 48 0
-4 -26 -48 0
5 41 48 0
-5 -41 -48 0
6 48 56 0
-6 -48 -56 0
3 12 49 0
-3 -12 -49 0
4 27 49 0
-4 -27 -49 0
5 42 49 0
-5 -42 -49 0
6 49 57 0
-6 -49 -57 0
3 13 50 0
-3 -13 -50 0
4 28 50 0
-4 -28 -50 0
5 43 50 0
-5 -43 -50 0
6 50 58 0
-6 -50 -58 0
3 14 51 0
-3 -14 -51 0
4 29 51 0
-4 -29 -51 0
5 44 51 0
-5 -44 -51 0
6 51 59 0
-6 -51 -59 0
3 15 52 0
-3 -15 -52 0
4 30 52 0
-4 -30 -52 0
5 45 52 0
-5 -45 -52 0
6 52 60 0
-6 -52 -60 0
1 2 53 0
-1 -2 -53 0
3 16 53 0
-3 -16 -53 0
4 31 53 0
-4 -31 -53 0
5 46 53 0
-5 -46 -53 0
6 53 61 0
-6 -53 -61 0
2 54 0
-2 -54 0
3 17 54 0
-3 -17 -54 0
4 32 54 0
-4 -32 -54 0
5 47 54 0
-5 -47 -54 0
6 54 62 0
-6 -54 -62 0
2 3 55 0
-2 -3 -55 0
3 18 55 0
-3 -18 -55 0
4 33 55 0
-4 -33 -55 0
5 48 55 0
-5 -48 -55 0
2 4 56 0
-2 -4 -56 0
3 19 56 0
-3 -19 -56 0
4 34 56 0
-4 -34 -56 0
5 49 56 0
-5 -49 -56 0
2 5 57 0
-2 -5 -57 0
3 20 57 0
-3 -20 -57 0
4 35 57 0
-4 -35 -57 0
5 50 57 0
-5 -50 -57 0
2 6 58 0
-2 -6 -58 0
3 21 58 0
-3 -21 -58 0
4 36 58 0
-4 -36 -58 0
5 51 58 0
-5 -51 -58 0
2 7 59 0
-2 -7 -59 0
3 22 59 0
-3 -22 -59 0
4 37 59 0
-4 -37 -59 0
5 52 59 0
-5 -52 -59 0
2 8 60 0
-2 -8 -60 0
3 23 60 0
-3 -23 -60 0
4 38 60 0
-4 -38 -60 0
5 53 60 0
-5 -53 -60 0
2 9 61 0
-2 -9 -61 0
3 24 61 0
-3 -24 -61 0
4 39 61 0
-4 -39 -61 0
5 54 61 0
-5 -54 -61 0
2 10 62 0
-2 -10 -62 0
3 25 62 0
-3 -25 -62 0
4 40 62 0
-4 -40 -62 0
5 55 62 0
-5 -55 -62 0
