certificates/rado_a15_c82_N62.drat
-55 -62 0
5 7 -48 10 0
7 8 10 0
8 -62 0
-8 -1 0
d -8 -39 -1 0
-62 0
9 0
5 -8 0
-8 0
46 0
24 0
-3 0
-4 0
40 0
25 0
41 0
45 0
26 0
42 0
30 0
-7 0
31 0
39 0
44 0
10 0
29 0
27 0
-5 0
-6 0
12 0
55 0
43 0
15 0
1 0
11 0
28 0
14 0
16 0
54 0
13 0
-2 0
0
